c This file is generated by oracV2cnf
c Generated on Thu Oct 22 15:28:24 2015
p cnf 243 755
-1 -2 -74 0
1 2 -74 0
1 -2 74 0
-1 2 74 0
-3 -4 -75 0
3 4 -75 0
3 -4 75 0
-3 4 75 0
-5 -6 -76 0
5 6 -76 0
5 -6 76 0
-5 6 76 0
-7 -8 -77 0
7 8 -77 0
7 -8 77 0
-7 8 77 0
-9 -10 -78 0
9 10 -78 0
9 -10 78 0
-9 10 78 0
-11 -12 -79 0
11 12 -79 0
11 -12 79 0
-11 12 79 0
-13 -14 -80 0
13 14 -80 0
13 -14 80 0
-13 14 80 0
-15 -16 -81 0
15 16 -81 0
15 -16 81 0
-15 16 81 0
-17 -18 -82 0
17 18 -82 0
17 -18 82 0
-17 18 82 0
-19 -20 -83 0
19 20 -83 0
19 -20 83 0
-19 20 83 0
-21 -22 -84 0
21 22 -84 0
21 -22 84 0
-21 22 84 0
-23 -24 -85 0
23 24 -85 0
23 -24 85 0
-23 24 85 0
-25 -26 -86 0
25 26 -86 0
25 -26 86 0
-25 26 86 0
-27 -28 -87 0
27 28 -87 0
27 -28 87 0
-27 28 87 0
-29 -30 -88 0
29 30 -88 0
29 -30 88 0
-29 30 88 0
-31 -32 -89 0
31 32 -89 0
31 -32 89 0
-31 32 89 0
-33 -41 90 0
33 -90 0
41 -90 0
-34 -41 91 0
34 -91 0
41 -91 0
-35 -41 92 0
35 -92 0
41 -92 0
-36 -41 93 0
36 -93 0
41 -93 0
-37 -41 94 0
37 -94 0
41 -94 0
-38 -41 95 0
38 -95 0
41 -95 0
-39 -41 96 0
39 -96 0
41 -96 0
-40 -41 97 0
40 -97 0
41 -97 0
-1 -5 -98 0
1 5 -98 0
1 -5 98 0
-1 5 98 0
-9 -13 -99 0
9 13 -99 0
9 -13 99 0
-9 13 99 0
-2 -6 -100 0
2 6 -100 0
2 -6 100 0
-2 6 100 0
-10 -14 -101 0
10 14 -101 0
10 -14 101 0
-10 14 101 0
-3 -7 -102 0
3 7 -102 0
3 -7 102 0
-3 7 102 0
-11 -15 -103 0
11 15 -103 0
11 -15 103 0
-11 15 103 0
-4 -8 -104 0
4 8 -104 0
4 -8 104 0
-4 8 104 0
-12 -16 -105 0
12 16 -105 0
12 -16 105 0
-12 16 105 0
-17 -21 -106 0
17 21 -106 0
17 -21 106 0
-17 21 106 0
-25 -29 -107 0
25 29 -107 0
25 -29 107 0
-25 29 107 0
-18 -22 -108 0
18 22 -108 0
18 -22 108 0
-18 22 108 0
-26 -30 -109 0
26 30 -109 0
26 -30 109 0
-26 30 109 0
-19 -23 -110 0
19 23 -110 0
19 -23 110 0
-19 23 110 0
-27 -31 -111 0
27 31 -111 0
27 -31 111 0
-27 31 111 0
-20 -24 -112 0
20 24 -112 0
20 -24 112 0
-20 24 112 0
-28 -32 -113 0
28 32 -113 0
28 -32 113 0
-28 32 113 0
-74 -75 -114 0
74 75 -114 0
74 -75 114 0
-74 75 114 0
-76 -77 -115 0
76 77 -115 0
76 -77 115 0
-76 77 115 0
-78 -79 -116 0
78 79 -116 0
78 -79 116 0
-78 79 116 0
-80 -81 -117 0
80 81 -117 0
80 -81 117 0
-80 81 117 0
-82 -83 -118 0
82 83 -118 0
82 -83 118 0
-82 83 118 0
-84 -85 -119 0
84 85 -119 0
84 -85 119 0
-84 85 119 0
-86 -87 -120 0
86 87 -120 0
86 -87 120 0
-86 87 120 0
-88 -89 -121 0
88 89 -121 0
88 -89 121 0
-88 89 121 0
-98 -99 -122 0
98 99 -122 0
98 -99 122 0
-98 99 122 0
-100 -101 -123 0
100 101 -123 0
100 -101 123 0
-100 101 123 0
-102 -103 -124 0
102 103 -124 0
102 -103 124 0
-102 103 124 0
-104 -105 -125 0
104 105 -125 0
104 -105 125 0
-104 105 125 0
-106 -107 -126 0
106 107 -126 0
106 -107 126 0
-106 107 126 0
-108 -109 -127 0
108 109 -127 0
108 -109 127 0
-108 109 127 0
-110 -111 -128 0
110 111 -128 0
110 -111 128 0
-110 111 128 0
-112 -113 -129 0
112 113 -129 0
112 -113 129 0
-112 113 129 0
-114 -115 -130 0
114 115 -130 0
114 -115 130 0
-114 115 130 0
-116 -117 -131 0
116 117 -131 0
116 -117 131 0
-116 117 131 0
-114 -116 -132 0
114 116 -132 0
114 -116 132 0
-114 116 132 0
-115 -117 -133 0
115 117 -133 0
115 -117 133 0
-115 117 133 0
-118 -119 -134 0
118 119 -134 0
118 -119 134 0
-118 119 134 0
-120 -121 -135 0
120 121 -135 0
120 -121 135 0
-120 121 135 0
-118 -120 -136 0
118 120 -136 0
118 -120 136 0
-118 120 136 0
-119 -121 -137 0
119 121 -137 0
119 -121 137 0
-119 121 137 0
-90 -134 -138 0
90 134 -138 0
90 -134 138 0
-90 134 138 0
-91 -135 -139 0
91 135 -139 0
91 -135 139 0
-91 135 139 0
-92 -136 -140 0
92 136 -140 0
92 -136 140 0
-92 136 140 0
-93 -137 -141 0
93 137 -141 0
93 -137 141 0
-93 137 141 0
-94 -130 -142 0
94 130 -142 0
94 -130 142 0
-94 130 142 0
-95 -131 -143 0
95 131 -143 0
95 -131 143 0
-95 131 143 0
-96 -132 -144 0
96 132 -144 0
96 -132 144 0
-96 132 144 0
-97 -133 -145 0
97 133 -145 0
97 -133 145 0
-97 133 145 0
-122 -138 -146 0
122 138 -146 0
122 -138 146 0
-122 138 146 0
-123 -139 -147 0
123 139 -147 0
123 -139 147 0
-123 139 147 0
-124 -140 -148 0
124 140 -148 0
124 -140 148 0
-124 140 148 0
-125 -141 -149 0
125 141 -149 0
125 -141 149 0
-125 141 149 0
-126 -142 -150 0
126 142 -150 0
126 -142 150 0
-126 142 150 0
-127 -143 -151 0
127 143 -151 0
127 -143 151 0
-127 143 151 0
-128 -144 -152 0
128 144 -152 0
128 -144 152 0
-128 144 152 0
-129 -145 -153 0
129 145 -153 0
129 -145 153 0
-129 145 153 0
146 154 0
-146 -154 0
147 155 0
-147 -155 0
148 156 0
-148 -156 0
146 157 0
-146 -157 0
147 158 0
-147 -158 0
149 159 0
-149 -159 0
146 160 0
-146 -160 0
148 161 0
-148 -161 0
149 162 0
-149 -162 0
147 163 0
-147 -163 0
148 164 0
-148 -164 0
149 165 0
-149 -165 0
151 166 0
-151 -166 0
153 167 0
-153 -167 0
151 168 0
-151 -168 0
152 169 0
-152 -169 0
150 170 0
-150 -170 0
153 171 0
-153 -171 0
150 172 0
-150 -172 0
152 173 0
-152 -173 0
150 174 0
-150 -174 0
151 175 0
-151 -175 0
152 176 0
-152 -176 0
150 177 0
-150 -177 0
151 178 0
-151 -178 0
153 179 0
-153 -179 0
150 180 0
-150 -180 0
152 181 0
-152 -181 0
153 182 0
-153 -182 0
151 183 0
-151 -183 0
152 184 0
-152 -184 0
153 185 0
-153 -185 0
147 186 0
-147 -186 0
149 187 0
-149 -187 0
147 188 0
-147 -188 0
148 189 0
-148 -189 0
146 190 0
-146 -190 0
149 191 0
-149 -191 0
146 192 0
-146 -192 0
148 193 0
-148 -193 0
-154 -155 -156 -149 194 0
154 -194 0
155 -194 0
156 -194 0
149 -194 0
-157 -158 -148 -159 195 0
157 -195 0
158 -195 0
148 -195 0
159 -195 0
-160 -147 -161 -162 196 0
160 -196 0
147 -196 0
161 -196 0
162 -196 0
-146 -163 -164 -165 197 0
146 -197 0
163 -197 0
164 -197 0
165 -197 0
-174 -175 -176 -153 198 0
174 -198 0
175 -198 0
176 -198 0
153 -198 0
-177 -178 -152 -179 199 0
177 -199 0
178 -199 0
152 -199 0
179 -199 0
-180 -151 -181 -182 200 0
180 -200 0
151 -200 0
181 -200 0
182 -200 0
-150 -183 -184 -185 201 0
150 -201 0
183 -201 0
184 -201 0
185 -201 0
194 195 196 197 -202 0
-194 202 0
-195 202 0
-196 202 0
-197 202 0
198 199 200 201 -203 0
-198 203 0
-199 203 0
-200 203 0
-201 203 0
-150 -166 -152 -167 -202 204 0
150 -204 0
166 -204 0
152 -204 0
167 -204 0
202 -204 0
-150 -168 -169 -153 -202 205 0
150 -205 0
168 -205 0
169 -205 0
153 -205 0
202 -205 0
-170 -151 -152 -171 -202 206 0
170 -206 0
151 -206 0
152 -206 0
171 -206 0
202 -206 0
-172 -151 -173 -153 -202 207 0
172 -207 0
151 -207 0
173 -207 0
153 -207 0
202 -207 0
-146 -186 -148 -187 -203 208 0
146 -208 0
186 -208 0
148 -208 0
187 -208 0
203 -208 0
-146 -188 -189 -149 -203 209 0
146 -209 0
188 -209 0
189 -209 0
149 -209 0
203 -209 0
-190 -147 -148 -191 -203 210 0
190 -210 0
147 -210 0
148 -210 0
191 -210 0
203 -210 0
-192 -147 -193 -149 -203 211 0
192 -211 0
147 -211 0
193 -211 0
149 -211 0
203 -211 0
-146 -204 212 0
146 -212 0
204 -212 0
-147 -204 213 0
147 -213 0
204 -213 0
-148 -204 214 0
148 -214 0
204 -214 0
-149 -204 215 0
149 -215 0
204 -215 0
-146 -205 216 0
146 -216 0
205 -216 0
-147 -205 217 0
147 -217 0
205 -217 0
-148 -205 218 0
148 -218 0
205 -218 0
-149 -205 219 0
149 -219 0
205 -219 0
-146 -206 220 0
146 -220 0
206 -220 0
-147 -206 221 0
147 -221 0
206 -221 0
-148 -206 222 0
148 -222 0
206 -222 0
-149 -206 223 0
149 -223 0
206 -223 0
-146 -207 224 0
146 -224 0
207 -224 0
-147 -207 225 0
147 -225 0
207 -225 0
-148 -207 226 0
148 -226 0
207 -226 0
-149 -207 227 0
149 -227 0
207 -227 0
-150 -208 228 0
150 -228 0
208 -228 0
-151 -208 229 0
151 -229 0
208 -229 0
-152 -208 230 0
152 -230 0
208 -230 0
-153 -208 231 0
153 -231 0
208 -231 0
-150 -209 232 0
150 -232 0
209 -232 0
-151 -209 233 0
151 -233 0
209 -233 0
-152 -209 234 0
152 -234 0
209 -234 0
-153 -209 235 0
153 -235 0
209 -235 0
-150 -210 236 0
150 -236 0
210 -236 0
-151 -210 237 0
151 -237 0
210 -237 0
-152 -210 238 0
152 -238 0
210 -238 0
-153 -210 239 0
153 -239 0
210 -239 0
-150 -211 240 0
150 -240 0
211 -240 0
-151 -211 241 0
151 -241 0
211 -241 0
-152 -211 242 0
152 -242 0
211 -242 0
-153 -211 243 0
153 -243 0
211 -243 0
-1 -212 -42 0
1 212 -42 0
1 -212 42 0
-1 212 42 0
-2 -213 -43 0
2 213 -43 0
2 -213 43 0
-2 213 43 0
-3 -214 -44 0
3 214 -44 0
3 -214 44 0
-3 214 44 0
-4 -215 -45 0
4 215 -45 0
4 -215 45 0
-4 215 45 0
-5 -216 -46 0
5 216 -46 0
5 -216 46 0
-5 216 46 0
-6 -217 -47 0
6 217 -47 0
6 -217 47 0
-6 217 47 0
-7 -218 -48 0
7 218 -48 0
7 -218 48 0
-7 218 48 0
-8 -219 -49 0
8 219 -49 0
8 -219 49 0
-8 219 49 0
-9 -220 -50 0
9 220 -50 0
9 -220 50 0
-9 220 50 0
-10 -221 -51 0
10 221 -51 0
10 -221 51 0
-10 221 51 0
-11 -222 -52 0
11 222 -52 0
11 -222 52 0
-11 222 52 0
-12 -223 -53 0
12 223 -53 0
12 -223 53 0
-12 223 53 0
-13 -224 -54 0
13 224 -54 0
13 -224 54 0
-13 224 54 0
-14 -225 -55 0
14 225 -55 0
14 -225 55 0
-14 225 55 0
-15 -226 -56 0
15 226 -56 0
15 -226 56 0
-15 226 56 0
-16 -227 -57 0
16 227 -57 0
16 -227 57 0
-16 227 57 0
-17 -228 -58 0
17 228 -58 0
17 -228 58 0
-17 228 58 0
-18 -229 -59 0
18 229 -59 0
18 -229 59 0
-18 229 59 0
-19 -230 -60 0
19 230 -60 0
19 -230 60 0
-19 230 60 0
-20 -231 -61 0
20 231 -61 0
20 -231 61 0
-20 231 61 0
-21 -232 -62 0
21 232 -62 0
21 -232 62 0
-21 232 62 0
-22 -233 -63 0
22 233 -63 0
22 -233 63 0
-22 233 63 0
-23 -234 -64 0
23 234 -64 0
23 -234 64 0
-23 234 64 0
-24 -235 -65 0
24 235 -65 0
24 -235 65 0
-24 235 65 0
-25 -236 -66 0
25 236 -66 0
25 -236 66 0
-25 236 66 0
-26 -237 -67 0
26 237 -67 0
26 -237 67 0
-26 237 67 0
-27 -238 -68 0
27 238 -68 0
27 -238 68 0
-27 238 68 0
-28 -239 -69 0
28 239 -69 0
28 -239 69 0
-28 239 69 0
-29 -240 -70 0
29 240 -70 0
29 -240 70 0
-29 240 70 0
-30 -241 -71 0
30 241 -71 0
30 -241 71 0
-30 241 71 0
-31 -242 -72 0
31 242 -72 0
31 -242 72 0
-31 242 72 0
-32 -243 -73 0
32 243 -73 0
32 -243 73 0
-32 243 73 0
c assign values for PIs:
-1 0
2 0
-3 0
-4 0
-5 0
-6 0
-7 0
-8 0
9 0
10 0
-11 0
-12 0
-13 0
-14 0
15 0
-16 0
17 0
18 0
-19 0
20 0
21 0
-22 0
-23 0
24 0
-25 0
-26 0
-27 0
-28 0
-29 0
30 0
-31 0
32 0
33 0
-34 0
-35 0
-36 0
-37 0
38 0
-39 0
-40 0
41 0
